1 3 100 59917.15
1 3 200 61404.40
1 3 300 62536.57
2 3 100 70839.41
2 3 200 72700.79
2 3 300 73996.27
3 3 100 72937.25
3 3 200 74392.65
3 3 300 76005.07
4 3 100 68769.43
4 3 200 72151.37
4 3 300 72957.80
5 3 100 64352.20
5 3 200 66118.27
5 3 300 66828.65
